
Gurobi 7.5.2 (linux64) logging started Sat Jul  7 16:16:27 2018

Changed value of parameter LogFile to result/ilp/simNo_3-n_100-m_40-s_4-minVAF_0.05-cov_10000-k_1-fn_0.05-fp_0.0001-na_0.15.ILP.gurobiSolverLog
   Prev: gurobi.log  Default: 
Changed value of parameter TimeLimit to 86400.0
   Prev: 1e+100  Min: 0.0  Max: 1e+100  Default: 1e+100
Optimize a model with 639293 rows, 10765 columns and 1940420 nonzeros
Variable types: 0 continuous, 10765 integer (10765 binary)
Coefficient statistics:
  Matrix range     [1e-04, 4e+00]
  Objective range  [1e-01, 9e+00]
  Bounds range     [1e+00, 1e+00]
  RHS range        [2e-01, 2e+00]
Found heuristic solution: objective -14498.06276
Presolve removed 130698 rows and 1023 columns (presolve time = 6s) ...
Presolve removed 132757 rows and 1023 columns (presolve time = 10s) ...
Presolve removed 191135 rows and 1601 columns (presolve time = 15s) ...
Presolve removed 191135 rows and 1601 columns (presolve time = 20s) ...
Presolve removed 191135 rows and 1601 columns
Presolve time: 20.22s
Presolved: 448158 rows, 9164 columns, 1348333 nonzeros
Variable types: 0 continuous, 9164 integer (9164 binary)
Presolved: 9164 rows, 457322 columns, 1357497 nonzeros

Presolve removed 9164 rows and 457322 columns

Root simplex log...

Iteration    Objective       Primal Inf.    Dual Inf.      Time
       0    3.7395626e+00   0.000000e+00   6.809800e+04     24s
    9229   -1.0253566e+02   0.000000e+00   1.705452e+05     25s
   19531   -1.6284885e+02   0.000000e+00   0.000000e+00     28s
   19531   -1.6284885e+02   0.000000e+00   0.000000e+00     29s

Root relaxation: objective -1.628488e+02, 19531 iterations, 7.08 seconds
Total elapsed time = 51.24s
Total elapsed time = 63.30s
Total elapsed time = 81.26s

    Nodes    |    Current Node    |     Objective Bounds      |     Work
 Expl Unexpl |  Obj  Depth IntInf | Incumbent    BestBd   Gap | It/Node Time

     0     0 -162.84885    0  503 -14498.063 -162.84885  98.9%     -   90s
H    0     0                    -5260.751319 -162.84885  96.9%     -   95s
H    0     0                    -983.4339781 -162.84885  83.4%     -   95s
H    0     0                    -200.7763098 -162.84885  18.9%     -   96s
     0     0 -178.37108    0  419 -200.77631 -178.37108  11.2%     -  167s
     0     0 -178.37108    0  421 -200.77631 -178.37108  11.2%     -  173s
     0     0 -181.35844    0  428 -200.77631 -181.35844  9.67%     -  184s
     0     0 -181.35844    0  434 -200.77631 -181.35844  9.67%     -  190s
     0     0 -182.85213    0  407 -200.77631 -182.85213  8.93%     -  210s
H    0     0                    -197.7889457 -182.85213  7.55%     -  213s
     0     0 -182.85213    0  410 -197.78895 -182.85213  7.55%     -  215s
     0     0 -184.34581    0  371 -197.78895 -184.34581  6.80%     -  229s
     0     0 -184.84370    0  437 -197.78895 -184.84370  6.54%     -  261s
H    0     0                    -194.8015817 -184.84370  5.11%     -  265s
     0     0 -184.84370    0  438 -194.80158 -184.84370  5.11%     -  266s
     0     0 -186.33738    0  454 -194.80158 -186.33738  4.35%     -  285s
     0     0 -187.83107    0  410 -194.80158 -187.83107  3.58%     -  448s
     0     0 -187.83107    0  499 -194.80158 -187.83107  3.58%     -  514s
     0     0 -187.83107    0  428 -194.80158 -187.83107  3.58%     -  529s
     0     0 -187.83107    0  434 -194.80158 -187.83107  3.58%     -  539s
     0     0 -187.83107    0  432 -194.80158 -187.83107  3.58%     -  540s
     0     0 -189.82264    0  311 -194.80158 -189.82264  2.56%     -  566s
     0     0 -189.82264    0  408 -194.80158 -189.82264  2.56%     -  574s
     0     0 -189.82264    0  406 -194.80158 -189.82264  2.56%     -  575s
     0     0 -189.82264    0  417 -194.80158 -189.82264  2.56%     -  575s
     0     0 -191.81422    0  423 -194.80158 -191.81422  1.53%     -  576s
     0     0 -191.81422    0  422 -194.80158 -191.81422  1.53%     -  576s
     0     0 -191.81422    0  265 -194.80158 -191.81422  1.53%     -  578s
     0     0 -191.81422    0  303 -194.80158 -191.81422  1.53%     -  580s
     0     0 -191.81422    0  309 -194.80158 -191.81422  1.53%     -  580s
     0     0 -191.81422    0  291 -194.80158 -191.81422  1.53%     -  580s
     0     0 -191.81422    0  299 -194.80158 -191.81422  1.53%     -  580s
     0     0 -191.81422    0  269 -194.80158 -191.81422  1.53%     -  580s
     0     0 -191.81422    0  166 -194.80158 -191.81422  1.53%     -  581s
     0     0 -191.81422    0  177 -194.80158 -191.81422  1.53%     -  581s
     0     0 -191.81422    0  175 -194.80158 -191.81422  1.53%     -  581s
     0     0 -191.81422    0  183 -194.80158 -191.81422  1.53%     -  581s
     0     0 -191.81422    0  224 -194.80158 -191.81422  1.53%     -  582s
     0     0 -191.81422    0  225 -194.80158 -191.81422  1.53%     -  582s
     0     0 -191.81422    0  221 -194.80158 -191.81422  1.53%     -  583s
     0     0 -191.81422    0  280 -194.80158 -191.81422  1.53%     -  583s
     0     0 -191.81422    0  315 -194.80158 -191.81422  1.53%     -  583s
     0     0 -191.81422    0  204 -194.80158 -191.81422  1.53%     -  586s
     0     0 -191.81422    0  204 -194.80158 -191.81422  1.53%     -  586s
     0     2 -191.81422    0  204 -194.80158 -191.81422  1.53%     -  587s

Cutting planes:
  Gomory: 5
  Zero half: 18

Explored 7 nodes (105320 simplex iterations) in 587.53 seconds
Thread count was 1 (of 80 available processors)

Solution count 8: -194.802 -194.802 -194.802 ... -14498.1

Optimal solution found (tolerance 1.00e-04)
Best objective -1.948015817028e+02, best bound -1.948015817028e+02, gap 0.0000%
